\ENCODING=ISO-8859-1
\Problem name: 

Minimize
 obj: 6 y_0_1 + 4 y_0_2 + 7.2 y_0_3 + 11.2 y_0_4 + 6 y_1_0 + 7.2 y_1_2
      + 4 y_1_3 + 13.6 y_1_4 + 4 y_2_0 + 7.2 y_2_1 + 6 y_2_3 + 7.3 y_2_4
      + 7.2 y_3_0 + 4 y_3_1 + 6 y_3_2 + 10.6 y_3_4 + 11.2 y_4_0 + 13.6 y_4_1
      + 7.3 y_4_2 + 10.6 y_4_3
Subject To
 c1:  y_0_0 + y_1_0 + y_2_0 + y_3_0 + y_4_0  = 1
 c2:  y_0_1 + y_1_1 + y_2_1 + y_3_1 + y_4_1  = 1
 c3:  y_0_2 + y_1_2 + y_2_2 + y_3_2 + y_4_2  = 1
 c4:  y_0_3 + y_1_3 + y_2_3 + y_3_3 + y_4_3  = 1
 c5:  y_0_4 + y_1_4 + y_2_4 + y_3_4 + y_4_4  = 1
 c6:  y_0_0 + y_0_1 + y_0_2 + y_0_3 + y_0_4  = 1
 c7:  y_1_0 + y_1_1 + y_1_2 + y_1_3 + y_1_4  = 1
 c8:  y_2_0 + y_2_1 + y_2_2 + y_2_3 + y_2_4  = 1
 c9:  y_3_0 + y_3_1 + y_3_2 + y_3_3 + y_3_4  = 1
 c10: y_4_0 + y_4_1 + y_4_2 + y_4_3 + y_4_4  = 1
 c11: x_0_1 - 4 y_0_1 <= 0
 c12: x_0_2 - 4 y_0_2 <= 0
 c13: x_0_3 - 4 y_0_3 <= 0
 c14: x_0_4 - 4 y_0_4 <= 0
 c15: x_1_1 - 4 y_1_1 <= 0
 c16: x_1_2 - 4 y_1_2 <= 0
 c17: x_1_3 - 4 y_1_3 <= 0
 c18: x_1_4 - 4 y_1_4 <= 0
 c19: x_2_1 - 4 y_2_1 <= 0
 c20: x_2_2 - 4 y_2_2 <= 0
 c21: x_2_3 - 4 y_2_3 <= 0
 c22: x_2_4 - 4 y_2_4 <= 0
 c23: x_3_1 - 4 y_3_1 <= 0
 c24: x_3_2 - 4 y_3_2 <= 0
 c25: x_3_3 - 4 y_3_3 <= 0
 c26: x_3_4 - 4 y_3_4 <= 0
 c27: x_4_1 - 4 y_4_1 <= 0
 c28: x_4_2 - 4 y_4_2 <= 0
 c29: x_4_3 - 4 y_4_3 <= 0
 c30: x_4_4 - 4 y_4_4 <= 0
 c31: x_0_1 - x_0_4 + x_1_1 - x_1_1 - x_1_2 - x_1_3 - x_1_4 + x_2_1 + x_3_1
      + x_4_1  = 1
 c32: x_0_2 + x_1_2 - x_1_4 - x_2_1 + x_2_2 - x_2_2 - x_2_3 - x_2_4 + x_3_2
      + x_4_2  = 1
 c33: x_0_3 + x_1_3 + x_2_3 - x_2_4 - x_3_1 - x_3_2 + x_3_3 - x_3_3 - x_3_4
      + x_4_3  = 1
 c34: x_0_4 + x_1_4 + x_2_4 + x_3_4 - x_3_4 - x_4_1 - x_4_2 - x_4_3 + x_4_4
      - x_4_4  = 1
Bounds
      x_0_1 >= 0
      x_0_2 >= 0
      x_0_3 >= 0
      x_0_4 >= 0
      x_1_1 >= 0
      x_1_2 >= 0
      x_1_3 >= 0
      x_1_4 >= 0
      x_2_1 >= 0
      x_2_2 >= 0
      x_2_3 >= 0
      x_2_4 >= 0
      x_3_1 >= 0
      x_3_2 >= 0
      x_3_3 >= 0
      x_3_4 >= 0
      x_4_1 >= 0
      x_4_2 >= 0
      x_4_3 >= 0
      x_4_4 >= 0
 0 <= y_0_0 <= 1
 0 <= y_0_1 <= 1
 0 <= y_0_2 <= 1
 0 <= y_0_3 <= 1
 0 <= y_0_4 <= 1
 0 <= y_1_0 <= 1
 0 <= y_1_1 <= 1
 0 <= y_1_2 <= 1
 0 <= y_1_3 <= 1
 0 <= y_1_4 <= 1
 0 <= y_2_0 <= 1
 0 <= y_2_1 <= 1
 0 <= y_2_2 <= 1
 0 <= y_2_3 <= 1
 0 <= y_2_4 <= 1
 0 <= y_3_0 <= 1
 0 <= y_3_1 <= 1
 0 <= y_3_2 <= 1
 0 <= y_3_3 <= 1
 0 <= y_3_4 <= 1
 0 <= y_4_0 <= 1
 0 <= y_4_1 <= 1
 0 <= y_4_2 <= 1
 0 <= y_4_3 <= 1
 0 <= y_4_4 <= 1
Binaries
 y_0_0  y_0_1  y_0_2  y_0_3  y_0_4  y_1_0  y_1_1  y_1_2  y_1_3  y_1_4  y_2_0 
 y_2_1  y_2_2  y_2_3  y_2_4  y_3_0  y_3_1  y_3_2  y_3_3  y_3_4  y_4_0  y_4_1 
 y_4_2  y_4_3  y_4_4 
Generals
 x_0_1  x_0_2  x_0_3  x_0_4  x_1_1  x_1_2  x_1_3  x_1_4  x_2_1  x_2_2  x_2_3 
 x_2_4  x_3_1  x_3_2  x_3_3  x_3_4  x_4_1  x_4_2  x_4_3  x_4_4 
End
